c   #vars: 78   #clauses: 334   #literals: 890
c 
p cnf 78 334
-1 -2 0
1 2 67 68 0
23 24 67 68 0
-3 -4 0
-5 -6 0
25 26 73 74 0
46 47 73 74 0
-7 -8 0
-9 -10 0
-11 -12 0
-13 -14 0
-15 -16 0
-17 -18 0
-19 -20 0
3 4 44 45 0
3 4 48 49 0
-21 -22 0
-23 -24 0
-25 -26 0
-27 -28 0
-29 -30 0
-32 -33 0
-34 -35 0
-36 -37 0
-38 -39 0
-40 -41 0
-42 -43 0
-44 -45 0
-46 -47 0
-48 -49 0
13 14 31 -67 0
-50 -51 0
25 26 -53 59 0
-53 -54 0
-55 -56 0
29 30 64 65 0
-25 53 54 59 0
1 2 55 56 0
-57 -58 0
11 12 73 74 0
-60 -61 0
44 45 75 76 0
50 51 75 76 0
27 28 69 70 0
-62 -63 0
-64 -65 0
-67 -68 0
-69 -70 0
-71 -72 0
-73 -74 0
13 14 75 76 0
-75 -76 0
44 45 73 74 0
-77 -78 0
29 30 77 78 0
-1 -50 0
-2 -51 0
3 4 62 63 0
-1 -55 0
-2 -56 0
11 12 32 33 0
-1 -67 0
-2 -68 0
7 8 -40 66 0
-1 -71 0
-2 -72 0
48 49 60 61 0
5 6 69 70 0
-3 -29 0
-4 -30 0
-3 -44 0
-4 -45 0
11 12 57 58 0
-3 -48 0
-4 -49 0
5 6 53 54 0
29 30 71 72 0
-3 -62 0
-4 -63 0
-3 -64 0
-4 -65 0
-5 -32 0
-6 -33 0
-5 -42 0
-6 -43 0
-5 -46 0
-6 -47 0
-5 -53 0
-6 -54 0
-5 -57 0
-6 -58 0
7 8 55 56 0
38 39 71 72 0
31 62 63 -67 0
-5 -69 0
-6 -70 0
-7 40 41 66 0
-7 -27 0
-8 -28 0
-7 -36 0
-8 -37 0
-7 -40 0
-8 -41 0
5 6 32 33 0
-7 -50 0
-8 -51 0
21 22 62 63 0
-7 -55 0
-8 -56 0
13 14 46 47 0
-8 -66 0
11 12 44 45 0
-7 -77 0
-8 -78 0
36 37 77 78 0
-9 -44 0
-10 -45 0
13 14 31 -62 0
52 -55 60 61 0
19 20 75 76 0
-9 -55 0
-10 -56 0
7 8 36 37 0
-9 -62 0
-10 -63 0
-7 48 49 66 0
-9 -75 0
-10 -76 0
15 16 34 35 0
-11 -32 0
-12 -33 0
-38 53 54 59 0
-11 -44 0
-12 -45 0
-11 -48 0
-12 -49 0
7 8 27 28 0
-11 -57 0
-12 -58 0
21 22 50 51 0
-11 -73 0
-12 -74 0
15 16 52 -55 0
-14 -31 0
13 14 42 43 0
-13 -42 0
-14 -43 0
17 18 53 54 0
-13 -46 0
-14 -47 0
9 10 55 56 0
-13 -53 0
-14 -54 0
9 10 62 63 0
-13 -55 0
-14 -56 0
21 22 67 68 0
-13 -57 0
-14 -58 0
13 14 64 65 0
-13 -64 0
-14 -65 0
13 14 57 58 0
-13 -75 0
-14 -76 0
21 22 36 37 0
-15 -32 0
-16 -33 0
-15 -34 0
-16 -35 0
-15 -42 0
-16 -43 0
25 26 64 65 0
25 26 -38 59 0
-16 -52 0
38 39 64 65 0
-15 -64 0
-16 -65 0
13 14 55 56 0
-17 -27 0
-18 -28 0
3 4 29 30 0
-17 -53 0
-18 -54 0
23 24 32 33 0
-17 -69 0
-18 -70 0
5 6 46 47 0
-17 -73 0
-18 -74 0
17 18 69 70 0
-19 -34 0
-20 -35 0
1 2 71 72 0
-19 -42 0
-20 -43 0
32 33 57 58 0
-19 -69 0
-20 -70 0
7 8 50 51 0
-19 -75 0
-20 -76 0
40 41 -48 66 0
48 49 64 65 0
19 20 42 43 0
17 18 73 74 0
-21 -36 0
-22 -37 0
32 33 77 78 0
-15 52 60 61 0
-21 -50 0
-22 -51 0
1 2 50 51 0
-21 -62 0
-22 -63 0
7 8 -48 66 0
-21 -67 0
-22 -68 0
23 24 34 35 0
-23 -32 0
-24 -33 0
19 20 34 35 0
-23 -34 0
-24 -35 0
13 14 53 54 0
-23 -62 0
-24 -63 0
34 35 75 76 0
-23 -67 0
-24 -68 0
25 26 27 28 0
-25 -27 0
-26 -28 0
17 18 27 28 0
-25 -29 0
-26 -30 0
19 20 69 70 0
-26 -59 0
-25 -64 0
-26 -65 0
-25 -73 0
-26 -74 0
25 26 29 30 0
-27 -69 0
-28 -70 0
-29 -64 0
-30 -65 0
31 -62 67 68 0
-29 -71 0
-30 -72 0
-40 48 49 66 0
-29 -77 0
-30 -78 0
15 16 32 33 0
-31 -63 0
50 51 67 68 0
-31 -68 0
36 37 67 68 0
-32 -57 0
-33 -58 0
-32 -71 0
-33 -72 0
9 10 44 45 0
-32 -77 0
-33 -78 0
-34 -75 0
-35 -76 0
-36 -67 0
-37 -68 0
-36 -77 0
-37 -78 0
-38 -57 0
-39 -58 0
-39 -59 0
9 10 75 76 0
-38 -64 0
-39 -65 0
-13 31 67 68 0
-38 -71 0
-39 -72 0
15 16 42 43 0
-40 -64 0
-41 -65 0
-41 -66 0
42 43 60 61 0
-40 -77 0
-41 -78 0
-42 -60 0
-43 -61 0
40 41 77 78 0
-44 -73 0
-45 -74 0
11 12 48 49 0
-44 -75 0
-45 -76 0
5 6 57 58 0
-46 -73 0
-47 -74 0
15 16 52 -60 0
-46 -75 0
-47 -76 0
15 16 64 65 0
-48 -60 0
-49 -61 0
38 39 57 58 0
-48 -64 0
-49 -65 0
5 6 42 43 0
-49 -66 0
-48 -69 0
-49 -70 0
50 51 60 61 0
-15 52 55 56 0
7 8 40 41 0
-50 -60 0
-51 -61 0
7 8 77 78 0
3 4 64 65 0
-13 31 62 63 0
48 49 69 70 0
-50 -67 0
-51 -68 0
-50 -75 0
-51 -76 0
40 41 64 65 0
38 39 -53 59 0
-52 -56 0
32 33 71 72 0
-25 38 39 59 0
-52 -61 0
23 24 62 63 0
52 55 56 -60 0
46 47 75 76 0
-54 -59 0
